85 17 39 52 20 1 71 62 33 46 41 81 25 6 88 84 74 77 12 50 65 36 94 58 83 16 27 51 98 66 63 31 26 59 56 3 76 87 8 35 78 7 57 29 9 90 28 40 95 0 37 89 5 93 2 10 68 15 44 92 24 60 30 72 23 14 43 69 47 18 86 64 75 73 79 34 99 49 4 70 91 22 53 19 32 61 38 54 11 42 13 80 97 55 21 67 96 82 48 45 

